NAME : CON8-2.7128855.tour
COMMENT : Cost = 0_7128855
COMMENT : Found by LKH [Keld Helsgaun] Sat Sep  9 21:17:34 2017
TYPE : TOUR
DIMENSION : 59
TOUR_SECTION
1
25
29
3
37
13
8
50
57
27
21
46
11
40
55
22
41
6
12
10
54
36
43
47
23
38
7
9
49
58
35
48
42
34
31
53
51
33
5
17
14
56
2
18
20
39
28
26
52
30
45
15
19
59
24
32
44
4
16
-1
EOF
